c Bipartite assignment problem - 50x50
c 50 workers (nodes 1-50) to 50 tasks (nodes 51-100)
c Cost matrix generated with random costs in range [1, 10]
p min 100 2500
n 1 1
n 2 1
n 3 1
n 4 1
n 5 1
n 6 1
n 7 1
n 8 1
n 9 1
n 10 1
n 11 1
n 12 1
n 13 1
n 14 1
n 15 1
n 16 1
n 17 1
n 18 1
n 19 1
n 20 1
n 21 1
n 22 1
n 23 1
n 24 1
n 25 1
n 26 1
n 27 1
n 28 1
n 29 1
n 30 1
n 31 1
n 32 1
n 33 1
n 34 1
n 35 1
n 36 1
n 37 1
n 38 1
n 39 1
n 40 1
n 41 1
n 42 1
n 43 1
n 44 1
n 45 1
n 46 1
n 47 1
n 48 1
n 49 1
n 50 1
n 51 -1
n 52 -1
n 53 -1
n 54 -1
n 55 -1
n 56 -1
n 57 -1
n 58 -1
n 59 -1
n 60 -1
n 61 -1
n 62 -1
n 63 -1
n 64 -1
n 65 -1
n 66 -1
n 67 -1
n 68 -1
n 69 -1
n 70 -1
n 71 -1
n 72 -1
n 73 -1
n 74 -1
n 75 -1
n 76 -1
n 77 -1
n 78 -1
n 79 -1
n 80 -1
n 81 -1
n 82 -1
n 83 -1
n 84 -1
n 85 -1
n 86 -1
n 87 -1
n 88 -1
n 89 -1
n 90 -1
n 91 -1
n 92 -1
n 93 -1
n 94 -1
n 95 -1
n 96 -1
n 97 -1
n 98 -1
n 99 -1
n 100 -1
a 1 51 0 1 7
a 1 52 0 1 2
a 1 53 0 1 2
a 1 54 0 1 6
a 1 55 0 1 2
a 1 56 0 1 3
a 1 57 0 1 8
a 1 58 0 1 6
a 1 59 0 1 2
a 1 60 0 1 8
a 1 61 0 1 3
a 1 62 0 1 3
a 1 63 0 1 6
a 1 64 0 1 4
a 1 65 0 1 4
a 1 66 0 1 3
a 1 67 0 1 6
a 1 68 0 1 1
a 1 69 0 1 9
a 1 70 0 1 6
a 1 71 0 1 4
a 1 72 0 1 2
a 1 73 0 1 1
a 1 74 0 1 8
a 1 75 0 1 9
a 1 76 0 1 6
a 1 77 0 1 1
a 1 78 0 1 8
a 1 79 0 1 2
a 1 80 0 1 10
a 1 81 0 1 7
a 1 82 0 1 6
a 1 83 0 1 2
a 1 84 0 1 1
a 1 85 0 1 4
a 1 86 0 1 6
a 1 87 0 1 9
a 1 88 0 1 1
a 1 89 0 1 6
a 1 90 0 1 9
a 1 91 0 1 8
a 1 92 0 1 4
a 1 93 0 1 2
a 1 94 0 1 1
a 1 95 0 1 1
a 1 96 0 1 8
a 1 97 0 1 7
a 1 98 0 1 2
a 1 99 0 1 3
a 1 100 0 1 8
a 2 51 0 1 3
a 2 52 0 1 7
a 2 53 0 1 2
a 2 54 0 1 1
a 2 55 0 1 7
a 2 56 0 1 6
a 2 57 0 1 1
a 2 58 0 1 5
a 2 59 0 1 8
a 2 60 0 1 7
a 2 61 0 1 3
a 2 62 0 1 1
a 2 63 0 1 4
a 2 64 0 1 3
a 2 65 0 1 1
a 2 66 0 1 8
a 2 67 0 1 1
a 2 68 0 1 5
a 2 69 0 1 1
a 2 70 0 1 8
a 2 71 0 1 5
a 2 72 0 1 6
a 2 73 0 1 5
a 2 74 0 1 1
a 2 75 0 1 9
a 2 76 0 1 1
a 2 77 0 1 1
a 2 78 0 1 1
a 2 79 0 1 7
a 2 80 0 1 1
a 2 81 0 1 10
a 2 82 0 1 10
a 2 83 0 1 5
a 2 84 0 1 4
a 2 85 0 1 7
a 2 86 0 1 1
a 2 87 0 1 4
a 2 88 0 1 2
a 2 89 0 1 5
a 2 90 0 1 8
a 2 91 0 1 6
a 2 92 0 1 5
a 2 93 0 1 3
a 2 94 0 1 10
a 2 95 0 1 6
a 2 96 0 1 8
a 2 97 0 1 1
a 2 98 0 1 9
a 2 99 0 1 10
a 2 100 0 1 4
a 3 51 0 1 8
a 3 52 0 1 2
a 3 53 0 1 2
a 3 54 0 1 5
a 3 55 0 1 4
a 3 56 0 1 8
a 3 57 0 1 2
a 3 58 0 1 2
a 3 59 0 1 3
a 3 60 0 1 6
a 3 61 0 1 6
a 3 62 0 1 10
a 3 63 0 1 8
a 3 64 0 1 7
a 3 65 0 1 8
a 3 66 0 1 3
a 3 67 0 1 6
a 3 68 0 1 10
a 3 69 0 1 7
a 3 70 0 1 1
a 3 71 0 1 4
a 3 72 0 1 10
a 3 73 0 1 1
a 3 74 0 1 3
a 3 75 0 1 3
a 3 76 0 1 1
a 3 77 0 1 3
a 3 78 0 1 6
a 3 79 0 1 5
a 3 80 0 1 1
a 3 81 0 1 10
a 3 82 0 1 2
a 3 83 0 1 2
a 3 84 0 1 4
a 3 85 0 1 4
a 3 86 0 1 8
a 3 87 0 1 9
a 3 88 0 1 1
a 3 89 0 1 1
a 3 90 0 1 9
a 3 91 0 1 9
a 3 92 0 1 3
a 3 93 0 1 10
a 3 94 0 1 9
a 3 95 0 1 3
a 3 96 0 1 6
a 3 97 0 1 7
a 3 98 0 1 7
a 3 99 0 1 2
a 3 100 0 1 3
a 4 51 0 1 2
a 4 52 0 1 1
a 4 53 0 1 3
a 4 54 0 1 10
a 4 55 0 1 10
a 4 56 0 1 8
a 4 57 0 1 2
a 4 58 0 1 9
a 4 59 0 1 2
a 4 60 0 1 3
a 4 61 0 1 6
a 4 62 0 1 6
a 4 63 0 1 8
a 4 64 0 1 2
a 4 65 0 1 6
a 4 66 0 1 4
a 4 67 0 1 9
a 4 68 0 1 5
a 4 69 0 1 4
a 4 70 0 1 10
a 4 71 0 1 5
a 4 72 0 1 6
a 4 73 0 1 10
a 4 74 0 1 9
a 4 75 0 1 2
a 4 76 0 1 2
a 4 77 0 1 1
a 4 78 0 1 2
a 4 79 0 1 10
a 4 80 0 1 8
a 4 81 0 1 5
a 4 82 0 1 6
a 4 83 0 1 5
a 4 84 0 1 2
a 4 85 0 1 10
a 4 86 0 1 10
a 4 87 0 1 9
a 4 88 0 1 2
a 4 89 0 1 4
a 4 90 0 1 6
a 4 91 0 1 7
a 4 92 0 1 10
a 4 93 0 1 9
a 4 94 0 1 8
a 4 95 0 1 3
a 4 96 0 1 4
a 4 97 0 1 6
a 4 98 0 1 9
a 4 99 0 1 3
a 4 100 0 1 9
a 5 51 0 1 7
a 5 52 0 1 2
a 5 53 0 1 3
a 5 54 0 1 3
a 5 55 0 1 9
a 5 56 0 1 7
a 5 57 0 1 1
a 5 58 0 1 5
a 5 59 0 1 9
a 5 60 0 1 9
a 5 61 0 1 8
a 5 62 0 1 10
a 5 63 0 1 10
a 5 64 0 1 5
a 5 65 0 1 9
a 5 66 0 1 10
a 5 67 0 1 2
a 5 68 0 1 6
a 5 69 0 1 3
a 5 70 0 1 7
a 5 71 0 1 6
a 5 72 0 1 8
a 5 73 0 1 2
a 5 74 0 1 9
a 5 75 0 1 4
a 5 76 0 1 6
a 5 77 0 1 8
a 5 78 0 1 3
a 5 79 0 1 6
a 5 80 0 1 8
a 5 81 0 1 6
a 5 82 0 1 2
a 5 83 0 1 10
a 5 84 0 1 1
a 5 85 0 1 1
a 5 86 0 1 3
a 5 87 0 1 4
a 5 88 0 1 2
a 5 89 0 1 3
a 5 90 0 1 3
a 5 91 0 1 9
a 5 92 0 1 5
a 5 93 0 1 4
a 5 94 0 1 5
a 5 95 0 1 8
a 5 96 0 1 7
a 5 97 0 1 10
a 5 98 0 1 4
a 5 99 0 1 9
a 5 100 0 1 4
a 6 51 0 1 2
a 6 52 0 1 10
a 6 53 0 1 6
a 6 54 0 1 7
a 6 55 0 1 4
a 6 56 0 1 10
a 6 57 0 1 1
a 6 58 0 1 5
a 6 59 0 1 9
a 6 60 0 1 4
a 6 61 0 1 10
a 6 62 0 1 9
a 6 63 0 1 9
a 6 64 0 1 1
a 6 65 0 1 3
a 6 66 0 1 6
a 6 67 0 1 1
a 6 68 0 1 9
a 6 69 0 1 5
a 6 70 0 1 7
a 6 71 0 1 7
a 6 72 0 1 10
a 6 73 0 1 3
a 6 74 0 1 10
a 6 75 0 1 8
a 6 76 0 1 1
a 6 77 0 1 4
a 6 78 0 1 7
a 6 79 0 1 1
a 6 80 0 1 7
a 6 81 0 1 6
a 6 82 0 1 4
a 6 83 0 1 4
a 6 84 0 1 3
a 6 85 0 1 7
a 6 86 0 1 7
a 6 87 0 1 7
a 6 88 0 1 4
a 6 89 0 1 7
a 6 90 0 1 1
a 6 91 0 1 2
a 6 92 0 1 9
a 6 93 0 1 3
a 6 94 0 1 10
a 6 95 0 1 4
a 6 96 0 1 1
a 6 97 0 1 6
a 6 98 0 1 4
a 6 99 0 1 2
a 6 100 0 1 2
a 7 51 0 1 7
a 7 52 0 1 2
a 7 53 0 1 10
a 7 54 0 1 2
a 7 55 0 1 7
a 7 56 0 1 2
a 7 57 0 1 7
a 7 58 0 1 7
a 7 59 0 1 9
a 7 60 0 1 4
a 7 61 0 1 7
a 7 62 0 1 5
a 7 63 0 1 5
a 7 64 0 1 2
a 7 65 0 1 8
a 7 66 0 1 6
a 7 67 0 1 6
a 7 68 0 1 7
a 7 69 0 1 5
a 7 70 0 1 7
a 7 71 0 1 10
a 7 72 0 1 7
a 7 73 0 1 3
a 7 74 0 1 4
a 7 75 0 1 6
a 7 76 0 1 9
a 7 77 0 1 7
a 7 78 0 1 4
a 7 79 0 1 6
a 7 80 0 1 8
a 7 81 0 1 5
a 7 82 0 1 10
a 7 83 0 1 6
a 7 84 0 1 9
a 7 85 0 1 1
a 7 86 0 1 5
a 7 87 0 1 5
a 7 88 0 1 2
a 7 89 0 1 6
a 7 90 0 1 5
a 7 91 0 1 1
a 7 92 0 1 10
a 7 93 0 1 5
a 7 94 0 1 4
a 7 95 0 1 5
a 7 96 0 1 8
a 7 97 0 1 5
a 7 98 0 1 1
a 7 99 0 1 2
a 7 100 0 1 8
a 8 51 0 1 5
a 8 52 0 1 10
a 8 53 0 1 10
a 8 54 0 1 6
a 8 55 0 1 3
a 8 56 0 1 10
a 8 57 0 1 9
a 8 58 0 1 7
a 8 59 0 1 7
a 8 60 0 1 9
a 8 61 0 1 6
a 8 62 0 1 4
a 8 63 0 1 1
a 8 64 0 1 2
a 8 65 0 1 10
a 8 66 0 1 7
a 8 67 0 1 10
a 8 68 0 1 6
a 8 69 0 1 2
a 8 70 0 1 4
a 8 71 0 1 2
a 8 72 0 1 4
a 8 73 0 1 2
a 8 74 0 1 1
a 8 75 0 1 7
a 8 76 0 1 1
a 8 77 0 1 3
a 8 78 0 1 10
a 8 79 0 1 9
a 8 80 0 1 9
a 8 81 0 1 4
a 8 82 0 1 6
a 8 83 0 1 2
a 8 84 0 1 8
a 8 85 0 1 3
a 8 86 0 1 6
a 8 87 0 1 1
a 8 88 0 1 1
a 8 89 0 1 7
a 8 90 0 1 1
a 8 91 0 1 6
a 8 92 0 1 8
a 8 93 0 1 6
a 8 94 0 1 8
a 8 95 0 1 10
a 8 96 0 1 7
a 8 97 0 1 9
a 8 98 0 1 4
a 8 99 0 1 5
a 8 100 0 1 9
a 9 51 0 1 8
a 9 52 0 1 9
a 9 53 0 1 10
a 9 54 0 1 9
a 9 55 0 1 7
a 9 56 0 1 1
a 9 57 0 1 8
a 9 58 0 1 10
a 9 59 0 1 9
a 9 60 0 1 2
a 9 61 0 1 8
a 9 62 0 1 10
a 9 63 0 1 9
a 9 64 0 1 9
a 9 65 0 1 5
a 9 66 0 1 10
a 9 67 0 1 2
a 9 68 0 1 3
a 9 69 0 1 9
a 9 70 0 1 4
a 9 71 0 1 6
a 9 72 0 1 10
a 9 73 0 1 10
a 9 74 0 1 1
a 9 75 0 1 9
a 9 76 0 1 4
a 9 77 0 1 9
a 9 78 0 1 4
a 9 79 0 1 2
a 9 80 0 1 10
a 9 81 0 1 2
a 9 82 0 1 9
a 9 83 0 1 6
a 9 84 0 1 10
a 9 85 0 1 1
a 9 86 0 1 6
a 9 87 0 1 7
a 9 88 0 1 4
a 9 89 0 1 2
a 9 90 0 1 2
a 9 91 0 1 8
a 9 92 0 1 2
a 9 93 0 1 2
a 9 94 0 1 5
a 9 95 0 1 4
a 9 96 0 1 6
a 9 97 0 1 10
a 9 98 0 1 8
a 9 99 0 1 3
a 9 100 0 1 10
a 10 51 0 1 5
a 10 52 0 1 7
a 10 53 0 1 6
a 10 54 0 1 1
a 10 55 0 1 3
a 10 56 0 1 9
a 10 57 0 1 10
a 10 58 0 1 9
a 10 59 0 1 10
a 10 60 0 1 4
a 10 61 0 1 3
a 10 62 0 1 5
a 10 63 0 1 9
a 10 64 0 1 9
a 10 65 0 1 1
a 10 66 0 1 9
a 10 67 0 1 5
a 10 68 0 1 9
a 10 69 0 1 8
a 10 70 0 1 9
a 10 71 0 1 3
a 10 72 0 1 9
a 10 73 0 1 2
a 10 74 0 1 7
a 10 75 0 1 7
a 10 76 0 1 5
a 10 77 0 1 8
a 10 78 0 1 5
a 10 79 0 1 7
a 10 80 0 1 3
a 10 81 0 1 4
a 10 82 0 1 2
a 10 83 0 1 2
a 10 84 0 1 2
a 10 85 0 1 5
a 10 86 0 1 6
a 10 87 0 1 4
a 10 88 0 1 5
a 10 89 0 1 7
a 10 90 0 1 2
a 10 91 0 1 7
a 10 92 0 1 8
a 10 93 0 1 4
a 10 94 0 1 9
a 10 95 0 1 10
a 10 96 0 1 4
a 10 97 0 1 3
a 10 98 0 1 3
a 10 99 0 1 5
a 10 100 0 1 6
a 11 51 0 1 2
a 11 52 0 1 2
a 11 53 0 1 10
a 11 54 0 1 4
a 11 55 0 1 8
a 11 56 0 1 7
a 11 57 0 1 5
a 11 58 0 1 10
a 11 59 0 1 5
a 11 60 0 1 9
a 11 61 0 1 2
a 11 62 0 1 5
a 11 63 0 1 3
a 11 64 0 1 7
a 11 65 0 1 10
a 11 66 0 1 1
a 11 67 0 1 3
a 11 68 0 1 8
a 11 69 0 1 4
a 11 70 0 1 6
a 11 71 0 1 5
a 11 72 0 1 10
a 11 73 0 1 2
a 11 74 0 1 7
a 11 75 0 1 3
a 11 76 0 1 5
a 11 77 0 1 6
a 11 78 0 1 4
a 11 79 0 1 7
a 11 80 0 1 3
a 11 81 0 1 2
a 11 82 0 1 5
a 11 83 0 1 1
a 11 84 0 1 2
a 11 85 0 1 2
a 11 86 0 1 3
a 11 87 0 1 3
a 11 88 0 1 8
a 11 89 0 1 4
a 11 90 0 1 9
a 11 91 0 1 1
a 11 92 0 1 5
a 11 93 0 1 1
a 11 94 0 1 9
a 11 95 0 1 1
a 11 96 0 1 2
a 11 97 0 1 6
a 11 98 0 1 7
a 11 99 0 1 9
a 11 100 0 1 9
a 12 51 0 1 1
a 12 52 0 1 6
a 12 53 0 1 10
a 12 54 0 1 9
a 12 55 0 1 1
a 12 56 0 1 2
a 12 57 0 1 10
a 12 58 0 1 3
a 12 59 0 1 2
a 12 60 0 1 3
a 12 61 0 1 1
a 12 62 0 1 2
a 12 63 0 1 3
a 12 64 0 1 2
a 12 65 0 1 7
a 12 66 0 1 7
a 12 67 0 1 5
a 12 68 0 1 1
a 12 69 0 1 6
a 12 70 0 1 8
a 12 71 0 1 9
a 12 72 0 1 6
a 12 73 0 1 4
a 12 74 0 1 5
a 12 75 0 1 6
a 12 76 0 1 1
a 12 77 0 1 10
a 12 78 0 1 3
a 12 79 0 1 6
a 12 80 0 1 2
a 12 81 0 1 10
a 12 82 0 1 9
a 12 83 0 1 5
a 12 84 0 1 9
a 12 85 0 1 3
a 12 86 0 1 7
a 12 87 0 1 6
a 12 88 0 1 2
a 12 89 0 1 1
a 12 90 0 1 1
a 12 91 0 1 3
a 12 92 0 1 10
a 12 93 0 1 7
a 12 94 0 1 1
a 12 95 0 1 9
a 12 96 0 1 9
a 12 97 0 1 2
a 12 98 0 1 9
a 12 99 0 1 3
a 12 100 0 1 5
a 13 51 0 1 8
a 13 52 0 1 5
a 13 53 0 1 2
a 13 54 0 1 2
a 13 55 0 1 10
a 13 56 0 1 5
a 13 57 0 1 3
a 13 58 0 1 5
a 13 59 0 1 4
a 13 60 0 1 1
a 13 61 0 1 2
a 13 62 0 1 7
a 13 63 0 1 8
a 13 64 0 1 1
a 13 65 0 1 4
a 13 66 0 1 3
a 13 67 0 1 7
a 13 68 0 1 5
a 13 69 0 1 10
a 13 70 0 1 1
a 13 71 0 1 1
a 13 72 0 1 3
a 13 73 0 1 1
a 13 74 0 1 5
a 13 75 0 1 5
a 13 76 0 1 10
a 13 77 0 1 10
a 13 78 0 1 3
a 13 79 0 1 7
a 13 80 0 1 7
a 13 81 0 1 9
a 13 82 0 1 1
a 13 83 0 1 1
a 13 84 0 1 2
a 13 85 0 1 4
a 13 86 0 1 5
a 13 87 0 1 7
a 13 88 0 1 4
a 13 89 0 1 9
a 13 90 0 1 8
a 13 91 0 1 5
a 13 92 0 1 2
a 13 93 0 1 9
a 13 94 0 1 1
a 13 95 0 1 9
a 13 96 0 1 6
a 13 97 0 1 3
a 13 98 0 1 6
a 13 99 0 1 8
a 13 100 0 1 6
a 14 51 0 1 2
a 14 52 0 1 8
a 14 53 0 1 10
a 14 54 0 1 2
a 14 55 0 1 4
a 14 56 0 1 5
a 14 57 0 1 5
a 14 58 0 1 8
a 14 59 0 1 7
a 14 60 0 1 1
a 14 61 0 1 6
a 14 62 0 1 10
a 14 63 0 1 8
a 14 64 0 1 8
a 14 65 0 1 2
a 14 66 0 1 2
a 14 67 0 1 7
a 14 68 0 1 6
a 14 69 0 1 7
a 14 70 0 1 10
a 14 71 0 1 6
a 14 72 0 1 4
a 14 73 0 1 7
a 14 74 0 1 2
a 14 75 0 1 7
a 14 76 0 1 9
a 14 77 0 1 5
a 14 78 0 1 1
a 14 79 0 1 6
a 14 80 0 1 10
a 14 81 0 1 8
a 14 82 0 1 4
a 14 83 0 1 6
a 14 84 0 1 1
a 14 85 0 1 5
a 14 86 0 1 1
a 14 87 0 1 2
a 14 88 0 1 10
a 14 89 0 1 9
a 14 90 0 1 10
a 14 91 0 1 10
a 14 92 0 1 10
a 14 93 0 1 7
a 14 94 0 1 9
a 14 95 0 1 3
a 14 96 0 1 5
a 14 97 0 1 5
a 14 98 0 1 1
a 14 99 0 1 9
a 14 100 0 1 8
a 15 51 0 1 10
a 15 52 0 1 7
a 15 53 0 1 10
a 15 54 0 1 8
a 15 55 0 1 1
a 15 56 0 1 9
a 15 57 0 1 2
a 15 58 0 1 8
a 15 59 0 1 6
a 15 60 0 1 5
a 15 61 0 1 1
a 15 62 0 1 5
a 15 63 0 1 2
a 15 64 0 1 8
a 15 65 0 1 3
a 15 66 0 1 2
a 15 67 0 1 5
a 15 68 0 1 7
a 15 69 0 1 4
a 15 70 0 1 1
a 15 71 0 1 1
a 15 72 0 1 8
a 15 73 0 1 8
a 15 74 0 1 8
a 15 75 0 1 10
a 15 76 0 1 6
a 15 77 0 1 8
a 15 78 0 1 9
a 15 79 0 1 10
a 15 80 0 1 2
a 15 81 0 1 5
a 15 82 0 1 4
a 15 83 0 1 3
a 15 84 0 1 9
a 15 85 0 1 1
a 15 86 0 1 1
a 15 87 0 1 5
a 15 88 0 1 8
a 15 89 0 1 1
a 15 90 0 1 7
a 15 91 0 1 10
a 15 92 0 1 4
a 15 93 0 1 4
a 15 94 0 1 4
a 15 95 0 1 9
a 15 96 0 1 6
a 15 97 0 1 9
a 15 98 0 1 10
a 15 99 0 1 6
a 15 100 0 1 2
a 16 51 0 1 1
a 16 52 0 1 8
a 16 53 0 1 8
a 16 54 0 1 8
a 16 55 0 1 8
a 16 56 0 1 3
a 16 57 0 1 10
a 16 58 0 1 3
a 16 59 0 1 8
a 16 60 0 1 6
a 16 61 0 1 2
a 16 62 0 1 4
a 16 63 0 1 9
a 16 64 0 1 4
a 16 65 0 1 1
a 16 66 0 1 7
a 16 67 0 1 3
a 16 68 0 1 3
a 16 69 0 1 7
a 16 70 0 1 2
a 16 71 0 1 8
a 16 72 0 1 7
a 16 73 0 1 7
a 16 74 0 1 8
a 16 75 0 1 2
a 16 76 0 1 7
a 16 77 0 1 4
a 16 78 0 1 5
a 16 79 0 1 9
a 16 80 0 1 5
a 16 81 0 1 7
a 16 82 0 1 8
a 16 83 0 1 3
a 16 84 0 1 9
a 16 85 0 1 2
a 16 86 0 1 7
a 16 87 0 1 6
a 16 88 0 1 6
a 16 89 0 1 1
a 16 90 0 1 9
a 16 91 0 1 2
a 16 92 0 1 2
a 16 93 0 1 10
a 16 94 0 1 6
a 16 95 0 1 5
a 16 96 0 1 7
a 16 97 0 1 5
a 16 98 0 1 10
a 16 99 0 1 3
a 16 100 0 1 2
a 17 51 0 1 4
a 17 52 0 1 7
a 17 53 0 1 3
a 17 54 0 1 5
a 17 55 0 1 4
a 17 56 0 1 4
a 17 57 0 1 2
a 17 58 0 1 1
a 17 59 0 1 6
a 17 60 0 1 1
a 17 61 0 1 9
a 17 62 0 1 6
a 17 63 0 1 4
a 17 64 0 1 4
a 17 65 0 1 9
a 17 66 0 1 4
a 17 67 0 1 1
a 17 68 0 1 1
a 17 69 0 1 3
a 17 70 0 1 4
a 17 71 0 1 1
a 17 72 0 1 8
a 17 73 0 1 2
a 17 74 0 1 9
a 17 75 0 1 10
a 17 76 0 1 6
a 17 77 0 1 7
a 17 78 0 1 1
a 17 79 0 1 3
a 17 80 0 1 5
a 17 81 0 1 3
a 17 82 0 1 4
a 17 83 0 1 2
a 17 84 0 1 7
a 17 85 0 1 2
a 17 86 0 1 1
a 17 87 0 1 5
a 17 88 0 1 9
a 17 89 0 1 5
a 17 90 0 1 8
a 17 91 0 1 6
a 17 92 0 1 6
a 17 93 0 1 10
a 17 94 0 1 1
a 17 95 0 1 10
a 17 96 0 1 7
a 17 97 0 1 9
a 17 98 0 1 7
a 17 99 0 1 7
a 17 100 0 1 2
a 18 51 0 1 7
a 18 52 0 1 5
a 18 53 0 1 8
a 18 54 0 1 10
a 18 55 0 1 2
a 18 56 0 1 7
a 18 57 0 1 5
a 18 58 0 1 5
a 18 59 0 1 5
a 18 60 0 1 9
a 18 61 0 1 7
a 18 62 0 1 1
a 18 63 0 1 9
a 18 64 0 1 2
a 18 65 0 1 8
a 18 66 0 1 5
a 18 67 0 1 4
a 18 68 0 1 8
a 18 69 0 1 2
a 18 70 0 1 8
a 18 71 0 1 10
a 18 72 0 1 3
a 18 73 0 1 7
a 18 74 0 1 5
a 18 75 0 1 9
a 18 76 0 1 6
a 18 77 0 1 8
a 18 78 0 1 2
a 18 79 0 1 9
a 18 80 0 1 4
a 18 81 0 1 8
a 18 82 0 1 1
a 18 83 0 1 5
a 18 84 0 1 1
a 18 85 0 1 9
a 18 86 0 1 9
a 18 87 0 1 6
a 18 88 0 1 3
a 18 89 0 1 6
a 18 90 0 1 6
a 18 91 0 1 7
a 18 92 0 1 1
a 18 93 0 1 5
a 18 94 0 1 6
a 18 95 0 1 1
a 18 96 0 1 5
a 18 97 0 1 7
a 18 98 0 1 8
a 18 99 0 1 3
a 18 100 0 1 5
a 19 51 0 1 3
a 19 52 0 1 1
a 19 53 0 1 6
a 19 54 0 1 10
a 19 55 0 1 3
a 19 56 0 1 4
a 19 57 0 1 8
a 19 58 0 1 3
a 19 59 0 1 1
a 19 60 0 1 6
a 19 61 0 1 9
a 19 62 0 1 3
a 19 63 0 1 6
a 19 64 0 1 1
a 19 65 0 1 2
a 19 66 0 1 7
a 19 67 0 1 7
a 19 68 0 1 8
a 19 69 0 1 4
a 19 70 0 1 10
a 19 71 0 1 10
a 19 72 0 1 2
a 19 73 0 1 2
a 19 74 0 1 6
a 19 75 0 1 2
a 19 76 0 1 9
a 19 77 0 1 9
a 19 78 0 1 1
a 19 79 0 1 4
a 19 80 0 1 4
a 19 81 0 1 9
a 19 82 0 1 1
a 19 83 0 1 9
a 19 84 0 1 4
a 19 85 0 1 1
a 19 86 0 1 7
a 19 87 0 1 6
a 19 88 0 1 6
a 19 89 0 1 9
a 19 90 0 1 5
a 19 91 0 1 1
a 19 92 0 1 3
a 19 93 0 1 2
a 19 94 0 1 10
a 19 95 0 1 8
a 19 96 0 1 4
a 19 97 0 1 5
a 19 98 0 1 4
a 19 99 0 1 5
a 19 100 0 1 5
a 20 51 0 1 9
a 20 52 0 1 9
a 20 53 0 1 5
a 20 54 0 1 4
a 20 55 0 1 6
a 20 56 0 1 2
a 20 57 0 1 9
a 20 58 0 1 10
a 20 59 0 1 8
a 20 60 0 1 4
a 20 61 0 1 6
a 20 62 0 1 8
a 20 63 0 1 9
a 20 64 0 1 8
a 20 65 0 1 7
a 20 66 0 1 8
a 20 67 0 1 4
a 20 68 0 1 3
a 20 69 0 1 1
a 20 70 0 1 5
a 20 71 0 1 2
a 20 72 0 1 2
a 20 73 0 1 10
a 20 74 0 1 9
a 20 75 0 1 9
a 20 76 0 1 7
a 20 77 0 1 1
a 20 78 0 1 3
a 20 79 0 1 9
a 20 80 0 1 8
a 20 81 0 1 5
a 20 82 0 1 5
a 20 83 0 1 6
a 20 84 0 1 10
a 20 85 0 1 6
a 20 86 0 1 1
a 20 87 0 1 6
a 20 88 0 1 6
a 20 89 0 1 9
a 20 90 0 1 9
a 20 91 0 1 8
a 20 92 0 1 7
a 20 93 0 1 8
a 20 94 0 1 5
a 20 95 0 1 10
a 20 96 0 1 3
a 20 97 0 1 4
a 20 98 0 1 4
a 20 99 0 1 4
a 20 100 0 1 10
a 21 51 0 1 10
a 21 52 0 1 3
a 21 53 0 1 4
a 21 54 0 1 1
a 21 55 0 1 4
a 21 56 0 1 7
a 21 57 0 1 10
a 21 58 0 1 7
a 21 59 0 1 5
a 21 60 0 1 10
a 21 61 0 1 2
a 21 62 0 1 7
a 21 63 0 1 1
a 21 64 0 1 1
a 21 65 0 1 9
a 21 66 0 1 1
a 21 67 0 1 3
a 21 68 0 1 10
a 21 69 0 1 2
a 21 70 0 1 7
a 21 71 0 1 3
a 21 72 0 1 8
a 21 73 0 1 4
a 21 74 0 1 2
a 21 75 0 1 7
a 21 76 0 1 6
a 21 77 0 1 5
a 21 78 0 1 5
a 21 79 0 1 9
a 21 80 0 1 6
a 21 81 0 1 3
a 21 82 0 1 7
a 21 83 0 1 9
a 21 84 0 1 9
a 21 85 0 1 8
a 21 86 0 1 3
a 21 87 0 1 2
a 21 88 0 1 6
a 21 89 0 1 7
a 21 90 0 1 10
a 21 91 0 1 1
a 21 92 0 1 10
a 21 93 0 1 2
a 21 94 0 1 9
a 21 95 0 1 8
a 21 96 0 1 1
a 21 97 0 1 6
a 21 98 0 1 8
a 21 99 0 1 7
a 21 100 0 1 10
a 22 51 0 1 1
a 22 52 0 1 5
a 22 53 0 1 3
a 22 54 0 1 7
a 22 55 0 1 8
a 22 56 0 1 2
a 22 57 0 1 9
a 22 58 0 1 2
a 22 59 0 1 4
a 22 60 0 1 8
a 22 61 0 1 3
a 22 62 0 1 5
a 22 63 0 1 8
a 22 64 0 1 9
a 22 65 0 1 8
a 22 66 0 1 6
a 22 67 0 1 8
a 22 68 0 1 3
a 22 69 0 1 3
a 22 70 0 1 7
a 22 71 0 1 9
a 22 72 0 1 7
a 22 73 0 1 3
a 22 74 0 1 3
a 22 75 0 1 6
a 22 76 0 1 4
a 22 77 0 1 7
a 22 78 0 1 6
a 22 79 0 1 4
a 22 80 0 1 6
a 22 81 0 1 10
a 22 82 0 1 7
a 22 83 0 1 9
a 22 84 0 1 10
a 22 85 0 1 6
a 22 86 0 1 8
a 22 87 0 1 5
a 22 88 0 1 3
a 22 89 0 1 2
a 22 90 0 1 6
a 22 91 0 1 5
a 22 92 0 1 10
a 22 93 0 1 3
a 22 94 0 1 9
a 22 95 0 1 7
a 22 96 0 1 7
a 22 97 0 1 2
a 22 98 0 1 4
a 22 99 0 1 2
a 22 100 0 1 3
a 23 51 0 1 4
a 23 52 0 1 4
a 23 53 0 1 6
a 23 54 0 1 10
a 23 55 0 1 1
a 23 56 0 1 5
a 23 57 0 1 2
a 23 58 0 1 10
a 23 59 0 1 1
a 23 60 0 1 5
a 23 61 0 1 6
a 23 62 0 1 4
a 23 63 0 1 9
a 23 64 0 1 8
a 23 65 0 1 9
a 23 66 0 1 6
a 23 67 0 1 7
a 23 68 0 1 9
a 23 69 0 1 4
a 23 70 0 1 10
a 23 71 0 1 1
a 23 72 0 1 6
a 23 73 0 1 1
a 23 74 0 1 7
a 23 75 0 1 3
a 23 76 0 1 9
a 23 77 0 1 5
a 23 78 0 1 5
a 23 79 0 1 7
a 23 80 0 1 10
a 23 81 0 1 3
a 23 82 0 1 4
a 23 83 0 1 4
a 23 84 0 1 2
a 23 85 0 1 3
a 23 86 0 1 7
a 23 87 0 1 2
a 23 88 0 1 9
a 23 89 0 1 9
a 23 90 0 1 1
a 23 91 0 1 6
a 23 92 0 1 5
a 23 93 0 1 2
a 23 94 0 1 7
a 23 95 0 1 1
a 23 96 0 1 2
a 23 97 0 1 2
a 23 98 0 1 5
a 23 99 0 1 1
a 23 100 0 1 2
a 24 51 0 1 10
a 24 52 0 1 3
a 24 53 0 1 10
a 24 54 0 1 2
a 24 55 0 1 2
a 24 56 0 1 8
a 24 57 0 1 3
a 24 58 0 1 9
a 24 59 0 1 8
a 24 60 0 1 2
a 24 61 0 1 10
a 24 62 0 1 8
a 24 63 0 1 4
a 24 64 0 1 1
a 24 65 0 1 3
a 24 66 0 1 3
a 24 67 0 1 10
a 24 68 0 1 8
a 24 69 0 1 5
a 24 70 0 1 2
a 24 71 0 1 4
a 24 72 0 1 8
a 24 73 0 1 1
a 24 74 0 1 3
a 24 75 0 1 4
a 24 76 0 1 7
a 24 77 0 1 4
a 24 78 0 1 4
a 24 79 0 1 6
a 24 80 0 1 2
a 24 81 0 1 8
a 24 82 0 1 1
a 24 83 0 1 4
a 24 84 0 1 5
a 24 85 0 1 1
a 24 86 0 1 10
a 24 87 0 1 4
a 24 88 0 1 2
a 24 89 0 1 10
a 24 90 0 1 6
a 24 91 0 1 5
a 24 92 0 1 3
a 24 93 0 1 1
a 24 94 0 1 7
a 24 95 0 1 2
a 24 96 0 1 9
a 24 97 0 1 2
a 24 98 0 1 2
a 24 99 0 1 5
a 24 100 0 1 9
a 25 51 0 1 2
a 25 52 0 1 5
a 25 53 0 1 10
a 25 54 0 1 10
a 25 55 0 1 8
a 25 56 0 1 3
a 25 57 0 1 3
a 25 58 0 1 8
a 25 59 0 1 9
a 25 60 0 1 6
a 25 61 0 1 4
a 25 62 0 1 9
a 25 63 0 1 3
a 25 64 0 1 7
a 25 65 0 1 5
a 25 66 0 1 10
a 25 67 0 1 5
a 25 68 0 1 9
a 25 69 0 1 1
a 25 70 0 1 3
a 25 71 0 1 9
a 25 72 0 1 8
a 25 73 0 1 8
a 25 74 0 1 10
a 25 75 0 1 8
a 25 76 0 1 1
a 25 77 0 1 8
a 25 78 0 1 4
a 25 79 0 1 2
a 25 80 0 1 6
a 25 81 0 1 5
a 25 82 0 1 3
a 25 83 0 1 10
a 25 84 0 1 8
a 25 85 0 1 10
a 25 86 0 1 4
a 25 87 0 1 1
a 25 88 0 1 5
a 25 89 0 1 8
a 25 90 0 1 9
a 25 91 0 1 8
a 25 92 0 1 7
a 25 93 0 1 4
a 25 94 0 1 5
a 25 95 0 1 2
a 25 96 0 1 6
a 25 97 0 1 1
a 25 98 0 1 4
a 25 99 0 1 3
a 25 100 0 1 2
a 26 51 0 1 4
a 26 52 0 1 4
a 26 53 0 1 1
a 26 54 0 1 3
a 26 55 0 1 10
a 26 56 0 1 4
a 26 57 0 1 8
a 26 58 0 1 10
a 26 59 0 1 3
a 26 60 0 1 7
a 26 61 0 1 5
a 26 62 0 1 9
a 26 63 0 1 6
a 26 64 0 1 3
a 26 65 0 1 1
a 26 66 0 1 2
a 26 67 0 1 10
a 26 68 0 1 6
a 26 69 0 1 8
a 26 70 0 1 2
a 26 71 0 1 10
a 26 72 0 1 10
a 26 73 0 1 1
a 26 74 0 1 3
a 26 75 0 1 6
a 26 76 0 1 2
a 26 77 0 1 4
a 26 78 0 1 3
a 26 79 0 1 9
a 26 80 0 1 2
a 26 81 0 1 1
a 26 82 0 1 4
a 26 83 0 1 1
a 26 84 0 1 10
a 26 85 0 1 2
a 26 86 0 1 1
a 26 87 0 1 2
a 26 88 0 1 7
a 26 89 0 1 8
a 26 90 0 1 6
a 26 91 0 1 6
a 26 92 0 1 1
a 26 93 0 1 3
a 26 94 0 1 2
a 26 95 0 1 4
a 26 96 0 1 9
a 26 97 0 1 1
a 26 98 0 1 2
a 26 99 0 1 4
a 26 100 0 1 10
a 27 51 0 1 7
a 27 52 0 1 5
a 27 53 0 1 7
a 27 54 0 1 1
a 27 55 0 1 3
a 27 56 0 1 4
a 27 57 0 1 3
a 27 58 0 1 9
a 27 59 0 1 7
a 27 60 0 1 9
a 27 61 0 1 10
a 27 62 0 1 5
a 27 63 0 1 2
a 27 64 0 1 1
a 27 65 0 1 6
a 27 66 0 1 2
a 27 67 0 1 9
a 27 68 0 1 6
a 27 69 0 1 1
a 27 70 0 1 1
a 27 71 0 1 1
a 27 72 0 1 3
a 27 73 0 1 8
a 27 74 0 1 2
a 27 75 0 1 6
a 27 76 0 1 9
a 27 77 0 1 8
a 27 78 0 1 10
a 27 79 0 1 10
a 27 80 0 1 7
a 27 81 0 1 2
a 27 82 0 1 3
a 27 83 0 1 10
a 27 84 0 1 9
a 27 85 0 1 6
a 27 86 0 1 6
a 27 87 0 1 7
a 27 88 0 1 1
a 27 89 0 1 8
a 27 90 0 1 8
a 27 91 0 1 9
a 27 92 0 1 4
a 27 93 0 1 10
a 27 94 0 1 10
a 27 95 0 1 6
a 27 96 0 1 2
a 27 97 0 1 10
a 27 98 0 1 2
a 27 99 0 1 6
a 27 100 0 1 2
a 28 51 0 1 1
a 28 52 0 1 5
a 28 53 0 1 1
a 28 54 0 1 4
a 28 55 0 1 10
a 28 56 0 1 4
a 28 57 0 1 8
a 28 58 0 1 5
a 28 59 0 1 6
a 28 60 0 1 4
a 28 61 0 1 7
a 28 62 0 1 4
a 28 63 0 1 9
a 28 64 0 1 1
a 28 65 0 1 7
a 28 66 0 1 8
a 28 67 0 1 6
a 28 68 0 1 3
a 28 69 0 1 6
a 28 70 0 1 10
a 28 71 0 1 5
a 28 72 0 1 8
a 28 73 0 1 9
a 28 74 0 1 3
a 28 75 0 1 3
a 28 76 0 1 7
a 28 77 0 1 3
a 28 78 0 1 9
a 28 79 0 1 6
a 28 80 0 1 5
a 28 81 0 1 10
a 28 82 0 1 7
a 28 83 0 1 4
a 28 84 0 1 8
a 28 85 0 1 7
a 28 86 0 1 7
a 28 87 0 1 2
a 28 88 0 1 6
a 28 89 0 1 10
a 28 90 0 1 3
a 28 91 0 1 9
a 28 92 0 1 2
a 28 93 0 1 5
a 28 94 0 1 5
a 28 95 0 1 2
a 28 96 0 1 5
a 28 97 0 1 5
a 28 98 0 1 10
a 28 99 0 1 3
a 28 100 0 1 9
a 29 51 0 1 6
a 29 52 0 1 7
a 29 53 0 1 7
a 29 54 0 1 7
a 29 55 0 1 7
a 29 56 0 1 3
a 29 57 0 1 7
a 29 58 0 1 9
a 29 59 0 1 2
a 29 60 0 1 3
a 29 61 0 1 1
a 29 62 0 1 10
a 29 63 0 1 10
a 29 64 0 1 1
a 29 65 0 1 4
a 29 66 0 1 10
a 29 67 0 1 10
a 29 68 0 1 2
a 29 69 0 1 4
a 29 70 0 1 1
a 29 71 0 1 6
a 29 72 0 1 1
a 29 73 0 1 4
a 29 74 0 1 4
a 29 75 0 1 1
a 29 76 0 1 3
a 29 77 0 1 4
a 29 78 0 1 4
a 29 79 0 1 1
a 29 80 0 1 8
a 29 81 0 1 3
a 29 82 0 1 3
a 29 83 0 1 6
a 29 84 0 1 8
a 29 85 0 1 9
a 29 86 0 1 4
a 29 87 0 1 1
a 29 88 0 1 8
a 29 89 0 1 1
a 29 90 0 1 5
a 29 91 0 1 10
a 29 92 0 1 4
a 29 93 0 1 4
a 29 94 0 1 7
a 29 95 0 1 2
a 29 96 0 1 10
a 29 97 0 1 3
a 29 98 0 1 4
a 29 99 0 1 1
a 29 100 0 1 3
a 30 51 0 1 5
a 30 52 0 1 4
a 30 53 0 1 7
a 30 54 0 1 3
a 30 55 0 1 3
a 30 56 0 1 6
a 30 57 0 1 3
a 30 58 0 1 3
a 30 59 0 1 6
a 30 60 0 1 5
a 30 61 0 1 10
a 30 62 0 1 4
a 30 63 0 1 8
a 30 64 0 1 5
a 30 65 0 1 1
a 30 66 0 1 8
a 30 67 0 1 4
a 30 68 0 1 2
a 30 69 0 1 3
a 30 70 0 1 1
a 30 71 0 1 10
a 30 72 0 1 3
a 30 73 0 1 1
a 30 74 0 1 10
a 30 75 0 1 1
a 30 76 0 1 3
a 30 77 0 1 7
a 30 78 0 1 8
a 30 79 0 1 2
a 30 80 0 1 2
a 30 81 0 1 1
a 30 82 0 1 10
a 30 83 0 1 3
a 30 84 0 1 9
a 30 85 0 1 3
a 30 86 0 1 9
a 30 87 0 1 7
a 30 88 0 1 4
a 30 89 0 1 5
a 30 90 0 1 4
a 30 91 0 1 1
a 30 92 0 1 8
a 30 93 0 1 3
a 30 94 0 1 7
a 30 95 0 1 5
a 30 96 0 1 7
a 30 97 0 1 6
a 30 98 0 1 10
a 30 99 0 1 6
a 30 100 0 1 4
a 31 51 0 1 7
a 31 52 0 1 1
a 31 53 0 1 2
a 31 54 0 1 1
a 31 55 0 1 3
a 31 56 0 1 3
a 31 57 0 1 4
a 31 58 0 1 7
a 31 59 0 1 2
a 31 60 0 1 1
a 31 61 0 1 10
a 31 62 0 1 6
a 31 63 0 1 1
a 31 64 0 1 5
a 31 65 0 1 5
a 31 66 0 1 10
a 31 67 0 1 1
a 31 68 0 1 10
a 31 69 0 1 2
a 31 70 0 1 2
a 31 71 0 1 2
a 31 72 0 1 1
a 31 73 0 1 8
a 31 74 0 1 10
a 31 75 0 1 10
a 31 76 0 1 2
a 31 77 0 1 1
a 31 78 0 1 4
a 31 79 0 1 5
a 31 80 0 1 5
a 31 81 0 1 8
a 31 82 0 1 7
a 31 83 0 1 2
a 31 84 0 1 9
a 31 85 0 1 5
a 31 86 0 1 10
a 31 87 0 1 8
a 31 88 0 1 3
a 31 89 0 1 6
a 31 90 0 1 10
a 31 91 0 1 6
a 31 92 0 1 1
a 31 93 0 1 3
a 31 94 0 1 5
a 31 95 0 1 4
a 31 96 0 1 6
a 31 97 0 1 7
a 31 98 0 1 8
a 31 99 0 1 3
a 31 100 0 1 5
a 32 51 0 1 7
a 32 52 0 1 6
a 32 53 0 1 9
a 32 54 0 1 5
a 32 55 0 1 3
a 32 56 0 1 7
a 32 57 0 1 4
a 32 58 0 1 3
a 32 59 0 1 2
a 32 60 0 1 2
a 32 61 0 1 3
a 32 62 0 1 1
a 32 63 0 1 2
a 32 64 0 1 8
a 32 65 0 1 3
a 32 66 0 1 4
a 32 67 0 1 4
a 32 68 0 1 3
a 32 69 0 1 10
a 32 70 0 1 5
a 32 71 0 1 3
a 32 72 0 1 9
a 32 73 0 1 4
a 32 74 0 1 3
a 32 75 0 1 6
a 32 76 0 1 1
a 32 77 0 1 8
a 32 78 0 1 4
a 32 79 0 1 6
a 32 80 0 1 4
a 32 81 0 1 5
a 32 82 0 1 3
a 32 83 0 1 1
a 32 84 0 1 1
a 32 85 0 1 8
a 32 86 0 1 2
a 32 87 0 1 9
a 32 88 0 1 8
a 32 89 0 1 7
a 32 90 0 1 9
a 32 91 0 1 6
a 32 92 0 1 6
a 32 93 0 1 1
a 32 94 0 1 5
a 32 95 0 1 8
a 32 96 0 1 6
a 32 97 0 1 9
a 32 98 0 1 5
a 32 99 0 1 2
a 32 100 0 1 1
a 33 51 0 1 3
a 33 52 0 1 5
a 33 53 0 1 9
a 33 54 0 1 8
a 33 55 0 1 3
a 33 56 0 1 9
a 33 57 0 1 3
a 33 58 0 1 6
a 33 59 0 1 9
a 33 60 0 1 2
a 33 61 0 1 9
a 33 62 0 1 10
a 33 63 0 1 7
a 33 64 0 1 8
a 33 65 0 1 7
a 33 66 0 1 1
a 33 67 0 1 10
a 33 68 0 1 2
a 33 69 0 1 10
a 33 70 0 1 1
a 33 71 0 1 5
a 33 72 0 1 6
a 33 73 0 1 7
a 33 74 0 1 1
a 33 75 0 1 9
a 33 76 0 1 7
a 33 77 0 1 8
a 33 78 0 1 10
a 33 79 0 1 6
a 33 80 0 1 1
a 33 81 0 1 2
a 33 82 0 1 4
a 33 83 0 1 2
a 33 84 0 1 6
a 33 85 0 1 2
a 33 86 0 1 1
a 33 87 0 1 4
a 33 88 0 1 3
a 33 89 0 1 8
a 33 90 0 1 10
a 33 91 0 1 10
a 33 92 0 1 3
a 33 93 0 1 9
a 33 94 0 1 5
a 33 95 0 1 1
a 33 96 0 1 7
a 33 97 0 1 9
a 33 98 0 1 4
a 33 99 0 1 9
a 33 100 0 1 7
a 34 51 0 1 6
a 34 52 0 1 8
a 34 53 0 1 6
a 34 54 0 1 1
a 34 55 0 1 6
a 34 56 0 1 7
a 34 57 0 1 9
a 34 58 0 1 8
a 34 59 0 1 10
a 34 60 0 1 7
a 34 61 0 1 2
a 34 62 0 1 4
a 34 63 0 1 1
a 34 64 0 1 9
a 34 65 0 1 10
a 34 66 0 1 6
a 34 67 0 1 9
a 34 68 0 1 2
a 34 69 0 1 7
a 34 70 0 1 6
a 34 71 0 1 7
a 34 72 0 1 8
a 34 73 0 1 5
a 34 74 0 1 10
a 34 75 0 1 2
a 34 76 0 1 3
a 34 77 0 1 7
a 34 78 0 1 2
a 34 79 0 1 1
a 34 80 0 1 3
a 34 81 0 1 8
a 34 82 0 1 5
a 34 83 0 1 1
a 34 84 0 1 9
a 34 85 0 1 5
a 34 86 0 1 5
a 34 87 0 1 8
a 34 88 0 1 1
a 34 89 0 1 10
a 34 90 0 1 5
a 34 91 0 1 3
a 34 92 0 1 6
a 34 93 0 1 4
a 34 94 0 1 2
a 34 95 0 1 9
a 34 96 0 1 7
a 34 97 0 1 2
a 34 98 0 1 1
a 34 99 0 1 6
a 34 100 0 1 6
a 35 51 0 1 8
a 35 52 0 1 8
a 35 53 0 1 7
a 35 54 0 1 3
a 35 55 0 1 10
a 35 56 0 1 9
a 35 57 0 1 4
a 35 58 0 1 6
a 35 59 0 1 10
a 35 60 0 1 3
a 35 61 0 1 10
a 35 62 0 1 8
a 35 63 0 1 8
a 35 64 0 1 7
a 35 65 0 1 9
a 35 66 0 1 7
a 35 67 0 1 3
a 35 68 0 1 3
a 35 69 0 1 4
a 35 70 0 1 6
a 35 71 0 1 8
a 35 72 0 1 8
a 35 73 0 1 2
a 35 74 0 1 3
a 35 75 0 1 4
a 35 76 0 1 2
a 35 77 0 1 4
a 35 78 0 1 3
a 35 79 0 1 2
a 35 80 0 1 6
a 35 81 0 1 1
a 35 82 0 1 7
a 35 83 0 1 6
a 35 84 0 1 5
a 35 85 0 1 6
a 35 86 0 1 1
a 35 87 0 1 8
a 35 88 0 1 8
a 35 89 0 1 9
a 35 90 0 1 7
a 35 91 0 1 1
a 35 92 0 1 3
a 35 93 0 1 2
a 35 94 0 1 7
a 35 95 0 1 6
a 35 96 0 1 6
a 35 97 0 1 8
a 35 98 0 1 8
a 35 99 0 1 3
a 35 100 0 1 2
a 36 51 0 1 4
a 36 52 0 1 10
a 36 53 0 1 8
a 36 54 0 1 1
a 36 55 0 1 8
a 36 56 0 1 1
a 36 57 0 1 6
a 36 58 0 1 4
a 36 59 0 1 10
a 36 60 0 1 9
a 36 61 0 1 5
a 36 62 0 1 1
a 36 63 0 1 5
a 36 64 0 1 4
a 36 65 0 1 3
a 36 66 0 1 4
a 36 67 0 1 2
a 36 68 0 1 3
a 36 69 0 1 2
a 36 70 0 1 8
a 36 71 0 1 9
a 36 72 0 1 5
a 36 73 0 1 4
a 36 74 0 1 7
a 36 75 0 1 5
a 36 76 0 1 6
a 36 77 0 1 7
a 36 78 0 1 5
a 36 79 0 1 8
a 36 80 0 1 8
a 36 81 0 1 4
a 36 82 0 1 7
a 36 83 0 1 10
a 36 84 0 1 10
a 36 85 0 1 2
a 36 86 0 1 2
a 36 87 0 1 9
a 36 88 0 1 6
a 36 89 0 1 8
a 36 90 0 1 6
a 36 91 0 1 5
a 36 92 0 1 5
a 36 93 0 1 9
a 36 94 0 1 1
a 36 95 0 1 3
a 36 96 0 1 1
a 36 97 0 1 8
a 36 98 0 1 8
a 36 99 0 1 5
a 36 100 0 1 2
a 37 51 0 1 5
a 37 52 0 1 5
a 37 53 0 1 7
a 37 54 0 1 5
a 37 55 0 1 3
a 37 56 0 1 10
a 37 57 0 1 6
a 37 58 0 1 2
a 37 59 0 1 6
a 37 60 0 1 3
a 37 61 0 1 5
a 37 62 0 1 2
a 37 63 0 1 7
a 37 64 0 1 3
a 37 65 0 1 5
a 37 66 0 1 8
a 37 67 0 1 1
a 37 68 0 1 5
a 37 69 0 1 3
a 37 70 0 1 1
a 37 71 0 1 6
a 37 72 0 1 6
a 37 73 0 1 6
a 37 74 0 1 6
a 37 75 0 1 4
a 37 76 0 1 5
a 37 77 0 1 7
a 37 78 0 1 4
a 37 79 0 1 4
a 37 80 0 1 5
a 37 81 0 1 8
a 37 82 0 1 9
a 37 83 0 1 10
a 37 84 0 1 6
a 37 85 0 1 4
a 37 86 0 1 9
a 37 87 0 1 1
a 37 88 0 1 5
a 37 89 0 1 7
a 37 90 0 1 3
a 37 91 0 1 6
a 37 92 0 1 7
a 37 93 0 1 1
a 37 94 0 1 5
a 37 95 0 1 2
a 37 96 0 1 4
a 37 97 0 1 8
a 37 98 0 1 7
a 37 99 0 1 6
a 37 100 0 1 6
a 38 51 0 1 10
a 38 52 0 1 4
a 38 53 0 1 6
a 38 54 0 1 5
a 38 55 0 1 7
a 38 56 0 1 9
a 38 57 0 1 10
a 38 58 0 1 1
a 38 59 0 1 2
a 38 60 0 1 9
a 38 61 0 1 3
a 38 62 0 1 3
a 38 63 0 1 9
a 38 64 0 1 1
a 38 65 0 1 5
a 38 66 0 1 6
a 38 67 0 1 2
a 38 68 0 1 2
a 38 69 0 1 9
a 38 70 0 1 7
a 38 71 0 1 7
a 38 72 0 1 6
a 38 73 0 1 8
a 38 74 0 1 10
a 38 75 0 1 5
a 38 76 0 1 9
a 38 77 0 1 6
a 38 78 0 1 1
a 38 79 0 1 5
a 38 80 0 1 1
a 38 81 0 1 8
a 38 82 0 1 1
a 38 83 0 1 8
a 38 84 0 1 9
a 38 85 0 1 6
a 38 86 0 1 5
a 38 87 0 1 4
a 38 88 0 1 6
a 38 89 0 1 10
a 38 90 0 1 5
a 38 91 0 1 10
a 38 92 0 1 1
a 38 93 0 1 4
a 38 94 0 1 9
a 38 95 0 1 10
a 38 96 0 1 3
a 38 97 0 1 9
a 38 98 0 1 10
a 38 99 0 1 1
a 38 100 0 1 6
a 39 51 0 1 2
a 39 52 0 1 7
a 39 53 0 1 8
a 39 54 0 1 10
a 39 55 0 1 9
a 39 56 0 1 4
a 39 57 0 1 6
a 39 58 0 1 6
a 39 59 0 1 10
a 39 60 0 1 8
a 39 61 0 1 4
a 39 62 0 1 9
a 39 63 0 1 6
a 39 64 0 1 1
a 39 65 0 1 1
a 39 66 0 1 3
a 39 67 0 1 6
a 39 68 0 1 10
a 39 69 0 1 6
a 39 70 0 1 1
a 39 71 0 1 3
a 39 72 0 1 6
a 39 73 0 1 2
a 39 74 0 1 5
a 39 75 0 1 8
a 39 76 0 1 7
a 39 77 0 1 3
a 39 78 0 1 9
a 39 79 0 1 1
a 39 80 0 1 2
a 39 81 0 1 1
a 39 82 0 1 6
a 39 83 0 1 1
a 39 84 0 1 10
a 39 85 0 1 9
a 39 86 0 1 2
a 39 87 0 1 4
a 39 88 0 1 9
a 39 89 0 1 10
a 39 90 0 1 2
a 39 91 0 1 9
a 39 92 0 1 9
a 39 93 0 1 7
a 39 94 0 1 2
a 39 95 0 1 1
a 39 96 0 1 1
a 39 97 0 1 6
a 39 98 0 1 3
a 39 99 0 1 9
a 39 100 0 1 8
a 40 51 0 1 8
a 40 52 0 1 9
a 40 53 0 1 4
a 40 54 0 1 10
a 40 55 0 1 4
a 40 56 0 1 7
a 40 57 0 1 5
a 40 58 0 1 3
a 40 59 0 1 2
a 40 60 0 1 3
a 40 61 0 1 2
a 40 62 0 1 8
a 40 63 0 1 5
a 40 64 0 1 8
a 40 65 0 1 8
a 40 66 0 1 8
a 40 67 0 1 9
a 40 68 0 1 6
a 40 69 0 1 3
a 40 70 0 1 9
a 40 71 0 1 10
a 40 72 0 1 7
a 40 73 0 1 1
a 40 74 0 1 4
a 40 75 0 1 2
a 40 76 0 1 5
a 40 77 0 1 10
a 40 78 0 1 1
a 40 79 0 1 4
a 40 80 0 1 7
a 40 81 0 1 2
a 40 82 0 1 10
a 40 83 0 1 1
a 40 84 0 1 3
a 40 85 0 1 5
a 40 86 0 1 2
a 40 87 0 1 3
a 40 88 0 1 1
a 40 89 0 1 7
a 40 90 0 1 3
a 40 91 0 1 8
a 40 92 0 1 1
a 40 93 0 1 7
a 40 94 0 1 8
a 40 95 0 1 1
a 40 96 0 1 2
a 40 97 0 1 4
a 40 98 0 1 9
a 40 99 0 1 4
a 40 100 0 1 4
a 41 51 0 1 3
a 41 52 0 1 10
a 41 53 0 1 1
a 41 54 0 1 10
a 41 55 0 1 9
a 41 56 0 1 1
a 41 57 0 1 9
a 41 58 0 1 10
a 41 59 0 1 9
a 41 60 0 1 9
a 41 61 0 1 7
a 41 62 0 1 5
a 41 63 0 1 10
a 41 64 0 1 6
a 41 65 0 1 2
a 41 66 0 1 2
a 41 67 0 1 7
a 41 68 0 1 3
a 41 69 0 1 4
a 41 70 0 1 7
a 41 71 0 1 6
a 41 72 0 1 8
a 41 73 0 1 10
a 41 74 0 1 10
a 41 75 0 1 2
a 41 76 0 1 9
a 41 77 0 1 1
a 41 78 0 1 3
a 41 79 0 1 4
a 41 80 0 1 1
a 41 81 0 1 2
a 41 82 0 1 1
a 41 83 0 1 7
a 41 84 0 1 1
a 41 85 0 1 4
a 41 86 0 1 2
a 41 87 0 1 10
a 41 88 0 1 1
a 41 89 0 1 5
a 41 90 0 1 4
a 41 91 0 1 3
a 41 92 0 1 3
a 41 93 0 1 3
a 41 94 0 1 8
a 41 95 0 1 6
a 41 96 0 1 4
a 41 97 0 1 1
a 41 98 0 1 1
a 41 99 0 1 7
a 41 100 0 1 9
a 42 51 0 1 5
a 42 52 0 1 1
a 42 53 0 1 6
a 42 54 0 1 8
a 42 55 0 1 8
a 42 56 0 1 6
a 42 57 0 1 1
a 42 58 0 1 1
a 42 59 0 1 8
a 42 60 0 1 10
a 42 61 0 1 1
a 42 62 0 1 6
a 42 63 0 1 7
a 42 64 0 1 8
a 42 65 0 1 8
a 42 66 0 1 7
a 42 67 0 1 8
a 42 68 0 1 10
a 42 69 0 1 3
a 42 70 0 1 10
a 42 71 0 1 3
a 42 72 0 1 7
a 42 73 0 1 8
a 42 74 0 1 10
a 42 75 0 1 4
a 42 76 0 1 3
a 42 77 0 1 6
a 42 78 0 1 2
a 42 79 0 1 4
a 42 80 0 1 9
a 42 81 0 1 9
a 42 82 0 1 10
a 42 83 0 1 7
a 42 84 0 1 5
a 42 85 0 1 6
a 42 86 0 1 1
a 42 87 0 1 5
a 42 88 0 1 9
a 42 89 0 1 3
a 42 90 0 1 9
a 42 91 0 1 1
a 42 92 0 1 9
a 42 93 0 1 4
a 42 94 0 1 6
a 42 95 0 1 4
a 42 96 0 1 8
a 42 97 0 1 7
a 42 98 0 1 5
a 42 99 0 1 1
a 42 100 0 1 9
a 43 51 0 1 6
a 43 52 0 1 2
a 43 53 0 1 9
a 43 54 0 1 7
a 43 55 0 1 7
a 43 56 0 1 9
a 43 57 0 1 4
a 43 58 0 1 7
a 43 59 0 1 5
a 43 60 0 1 6
a 43 61 0 1 1
a 43 62 0 1 10
a 43 63 0 1 7
a 43 64 0 1 10
a 43 65 0 1 2
a 43 66 0 1 1
a 43 67 0 1 10
a 43 68 0 1 3
a 43 69 0 1 2
a 43 70 0 1 8
a 43 71 0 1 3
a 43 72 0 1 9
a 43 73 0 1 7
a 43 74 0 1 5
a 43 75 0 1 9
a 43 76 0 1 5
a 43 77 0 1 3
a 43 78 0 1 3
a 43 79 0 1 6
a 43 80 0 1 7
a 43 81 0 1 7
a 43 82 0 1 1
a 43 83 0 1 2
a 43 84 0 1 6
a 43 85 0 1 4
a 43 86 0 1 7
a 43 87 0 1 1
a 43 88 0 1 10
a 43 89 0 1 8
a 43 90 0 1 8
a 43 91 0 1 7
a 43 92 0 1 8
a 43 93 0 1 5
a 43 94 0 1 8
a 43 95 0 1 9
a 43 96 0 1 2
a 43 97 0 1 2
a 43 98 0 1 4
a 43 99 0 1 5
a 43 100 0 1 3
a 44 51 0 1 8
a 44 52 0 1 5
a 44 53 0 1 3
a 44 54 0 1 3
a 44 55 0 1 7
a 44 56 0 1 7
a 44 57 0 1 6
a 44 58 0 1 5
a 44 59 0 1 8
a 44 60 0 1 3
a 44 61 0 1 6
a 44 62 0 1 2
a 44 63 0 1 1
a 44 64 0 1 8
a 44 65 0 1 10
a 44 66 0 1 10
a 44 67 0 1 8
a 44 68 0 1 2
a 44 69 0 1 7
a 44 70 0 1 5
a 44 71 0 1 1
a 44 72 0 1 10
a 44 73 0 1 5
a 44 74 0 1 5
a 44 75 0 1 1
a 44 76 0 1 5
a 44 77 0 1 4
a 44 78 0 1 10
a 44 79 0 1 7
a 44 80 0 1 7
a 44 81 0 1 3
a 44 82 0 1 10
a 44 83 0 1 8
a 44 84 0 1 4
a 44 85 0 1 9
a 44 86 0 1 2
a 44 87 0 1 8
a 44 88 0 1 9
a 44 89 0 1 9
a 44 90 0 1 7
a 44 91 0 1 2
a 44 92 0 1 7
a 44 93 0 1 3
a 44 94 0 1 6
a 44 95 0 1 2
a 44 96 0 1 6
a 44 97 0 1 8
a 44 98 0 1 8
a 44 99 0 1 8
a 44 100 0 1 9
a 45 51 0 1 5
a 45 52 0 1 10
a 45 53 0 1 8
a 45 54 0 1 10
a 45 55 0 1 3
a 45 56 0 1 9
a 45 57 0 1 1
a 45 58 0 1 9
a 45 59 0 1 3
a 45 60 0 1 2
a 45 61 0 1 3
a 45 62 0 1 6
a 45 63 0 1 9
a 45 64 0 1 2
a 45 65 0 1 10
a 45 66 0 1 7
a 45 67 0 1 4
a 45 68 0 1 8
a 45 69 0 1 10
a 45 70 0 1 8
a 45 71 0 1 3
a 45 72 0 1 10
a 45 73 0 1 4
a 45 74 0 1 10
a 45 75 0 1 4
a 45 76 0 1 4
a 45 77 0 1 8
a 45 78 0 1 9
a 45 79 0 1 3
a 45 80 0 1 5
a 45 81 0 1 8
a 45 82 0 1 7
a 45 83 0 1 2
a 45 84 0 1 8
a 45 85 0 1 3
a 45 86 0 1 4
a 45 87 0 1 2
a 45 88 0 1 9
a 45 89 0 1 2
a 45 90 0 1 10
a 45 91 0 1 2
a 45 92 0 1 9
a 45 93 0 1 7
a 45 94 0 1 8
a 45 95 0 1 4
a 45 96 0 1 6
a 45 97 0 1 8
a 45 98 0 1 1
a 45 99 0 1 7
a 45 100 0 1 6
a 46 51 0 1 3
a 46 52 0 1 10
a 46 53 0 1 8
a 46 54 0 1 1
a 46 55 0 1 7
a 46 56 0 1 5
a 46 57 0 1 7
a 46 58 0 1 8
a 46 59 0 1 7
a 46 60 0 1 9
a 46 61 0 1 2
a 46 62 0 1 2
a 46 63 0 1 6
a 46 64 0 1 8
a 46 65 0 1 4
a 46 66 0 1 6
a 46 67 0 1 5
a 46 68 0 1 1
a 46 69 0 1 9
a 46 70 0 1 7
a 46 71 0 1 6
a 46 72 0 1 5
a 46 73 0 1 6
a 46 74 0 1 10
a 46 75 0 1 6
a 46 76 0 1 4
a 46 77 0 1 3
a 46 78 0 1 6
a 46 79 0 1 7
a 46 80 0 1 9
a 46 81 0 1 7
a 46 82 0 1 7
a 46 83 0 1 2
a 46 84 0 1 8
a 46 85 0 1 3
a 46 86 0 1 8
a 46 87 0 1 9
a 46 88 0 1 1
a 46 89 0 1 2
a 46 90 0 1 8
a 46 91 0 1 7
a 46 92 0 1 4
a 46 93 0 1 3
a 46 94 0 1 3
a 46 95 0 1 9
a 46 96 0 1 10
a 46 97 0 1 4
a 46 98 0 1 9
a 46 99 0 1 4
a 46 100 0 1 8
a 47 51 0 1 1
a 47 52 0 1 7
a 47 53 0 1 3
a 47 54 0 1 1
a 47 55 0 1 10
a 47 56 0 1 8
a 47 57 0 1 4
a 47 58 0 1 9
a 47 59 0 1 6
a 47 60 0 1 3
a 47 61 0 1 3
a 47 62 0 1 1
a 47 63 0 1 2
a 47 64 0 1 9
a 47 65 0 1 3
a 47 66 0 1 5
a 47 67 0 1 10
a 47 68 0 1 8
a 47 69 0 1 6
a 47 70 0 1 6
a 47 71 0 1 8
a 47 72 0 1 4
a 47 73 0 1 10
a 47 74 0 1 1
a 47 75 0 1 10
a 47 76 0 1 2
a 47 77 0 1 3
a 47 78 0 1 4
a 47 79 0 1 1
a 47 80 0 1 6
a 47 81 0 1 10
a 47 82 0 1 5
a 47 83 0 1 3
a 47 84 0 1 9
a 47 85 0 1 8
a 47 86 0 1 10
a 47 87 0 1 4
a 47 88 0 1 2
a 47 89 0 1 8
a 47 90 0 1 5
a 47 91 0 1 5
a 47 92 0 1 1
a 47 93 0 1 6
a 47 94 0 1 9
a 47 95 0 1 6
a 47 96 0 1 6
a 47 97 0 1 2
a 47 98 0 1 4
a 47 99 0 1 1
a 47 100 0 1 4
a 48 51 0 1 1
a 48 52 0 1 6
a 48 53 0 1 4
a 48 54 0 1 8
a 48 55 0 1 1
a 48 56 0 1 8
a 48 57 0 1 8
a 48 58 0 1 3
a 48 59 0 1 1
a 48 60 0 1 9
a 48 61 0 1 5
a 48 62 0 1 1
a 48 63 0 1 9
a 48 64 0 1 10
a 48 65 0 1 3
a 48 66 0 1 8
a 48 67 0 1 9
a 48 68 0 1 3
a 48 69 0 1 2
a 48 70 0 1 3
a 48 71 0 1 2
a 48 72 0 1 8
a 48 73 0 1 10
a 48 74 0 1 1
a 48 75 0 1 2
a 48 76 0 1 7
a 48 77 0 1 9
a 48 78 0 1 1
a 48 79 0 1 5
a 48 80 0 1 5
a 48 81 0 1 10
a 48 82 0 1 9
a 48 83 0 1 3
a 48 84 0 1 7
a 48 85 0 1 6
a 48 86 0 1 5
a 48 87 0 1 1
a 48 88 0 1 6
a 48 89 0 1 9
a 48 90 0 1 1
a 48 91 0 1 3
a 48 92 0 1 2
a 48 93 0 1 2
a 48 94 0 1 10
a 48 95 0 1 10
a 48 96 0 1 4
a 48 97 0 1 3
a 48 98 0 1 7
a 48 99 0 1 7
a 48 100 0 1 8
a 49 51 0 1 8
a 49 52 0 1 10
a 49 53 0 1 3
a 49 54 0 1 9
a 49 55 0 1 3
a 49 56 0 1 3
a 49 57 0 1 6
a 49 58 0 1 3
a 49 59 0 1 6
a 49 60 0 1 4
a 49 61 0 1 9
a 49 62 0 1 8
a 49 63 0 1 8
a 49 64 0 1 7
a 49 65 0 1 9
a 49 66 0 1 6
a 49 67 0 1 9
a 49 68 0 1 2
a 49 69 0 1 4
a 49 70 0 1 9
a 49 71 0 1 7
a 49 72 0 1 3
a 49 73 0 1 5
a 49 74 0 1 1
a 49 75 0 1 10
a 49 76 0 1 10
a 49 77 0 1 7
a 49 78 0 1 1
a 49 79 0 1 1
a 49 80 0 1 9
a 49 81 0 1 5
a 49 82 0 1 2
a 49 83 0 1 5
a 49 84 0 1 8
a 49 85 0 1 7
a 49 86 0 1 1
a 49 87 0 1 7
a 49 88 0 1 4
a 49 89 0 1 5
a 49 90 0 1 4
a 49 91 0 1 9
a 49 92 0 1 9
a 49 93 0 1 10
a 49 94 0 1 5
a 49 95 0 1 2
a 49 96 0 1 6
a 49 97 0 1 5
a 49 98 0 1 6
a 49 99 0 1 2
a 49 100 0 1 5
a 50 51 0 1 6
a 50 52 0 1 2
a 50 53 0 1 3
a 50 54 0 1 8
a 50 55 0 1 1
a 50 56 0 1 5
a 50 57 0 1 5
a 50 58 0 1 2
a 50 59 0 1 9
a 50 60 0 1 3
a 50 61 0 1 6
a 50 62 0 1 6
a 50 63 0 1 2
a 50 64 0 1 7
a 50 65 0 1 10
a 50 66 0 1 8
a 50 67 0 1 4
a 50 68 0 1 1
a 50 69 0 1 10
a 50 70 0 1 8
a 50 71 0 1 10
a 50 72 0 1 5
a 50 73 0 1 7
a 50 74 0 1 10
a 50 75 0 1 10
a 50 76 0 1 9
a 50 77 0 1 3
a 50 78 0 1 10
a 50 79 0 1 10
a 50 80 0 1 5
a 50 81 0 1 6
a 50 82 0 1 1
a 50 83 0 1 9
a 50 84 0 1 7
a 50 85 0 1 4
a 50 86 0 1 4
a 50 87 0 1 10
a 50 88 0 1 7
a 50 89 0 1 7
a 50 90 0 1 2
a 50 91 0 1 6
a 50 92 0 1 5
a 50 93 0 1 6
a 50 94 0 1 2
a 50 95 0 1 8
a 50 96 0 1 4
a 50 97 0 1 7
a 50 98 0 1 4
a 50 99 0 1 6
a 50 100 0 1 5
